0
20
9
0
10
0
12
0
0
7
0
7
21
10
0
0
8
0
30
37
8
11
8
11
0
0
22
29
15
0
25
11
21
16
6
0
0
23
0
42
11
0
0
10
11
0
6
19
12
10
22
10
9
7
47
0
8
8
0
0
65
0
11
45
8
13
18
0
8
0
0
25
8
16
43
0
0
0
12
12
0
9
0
8
11
16
15
13
0
16
14
33
0
0
0
15
0
13
0
0
